2625 1 0 1 1 1 1 1 1 1 1 1 0 1 1 1 1 0 0 1 1 1 1
2215 1 1 1 0 0 1 1 1 1 0 1 1 1 1 0 1 1 0 1 1 1 1
2479 0 1 1 1 0 1 1 1 1 1 1 1 0 1 1 1 0 0 1 1 1 1
2474 1 1 1 1 1 1 1 0 1 1 1 1 0 1 1 0 0 1 1 1 1 1
2877 1 0 0 1 1 1 1 1 1 1 1 1 0 1 0 1 1 1 1 1 1 0
2581 1 1 0 1 1 1 1 0 0 1 1 1 0 0 1 0 1 1 1 1 1 1
2401 0 1 1 1 1 0 1 1 1 1 1 1 1 0 1 1 1 0 0 1 1 0
2647 0 1 0 1 1 1 1 1 1 1 1 1 0 1 1 0 0 1 1 1 0 1
2425 1 1 0 1 1 1 1 1 0 0 1 1 1 0 1 0 1 1 1 1 0 1
2265 1 1 1 1 1 1 1 1 1 1 1 0 1 0 0 1 1 0 1 1 0 1
2576 1 1 1 1 0 1 1 1 1 1 0 1 1 1 1 1 1 1 1 1 0 0
2525 0 0 1 1 1 1 1 1 0 1 1 1 0 1 1 1 1 0 1 1 0 0
2561 1 1 1 0 1 1 1 1 0 1 1 1 1 0 0 1 0 1 1 1 0 1
2677 1 1 1 1 0 1 1 1 1 1 1 1 1 0 1 1 0 0 0 0 1 1
2442 1 1 1 1 1 0 1 1 0 1 1 1 1 1 1 0 1 1 0 1 1 0
2646 1 1 1 0 1 1 1 1 0 1 1 0 0 1 1 1 0 1 1 1 0 1
1868 1 1 1 1 1 1 1 1 1 1 1 0 0 1 1 1 1 0 0 1 1 1
2505 1 1 0 1 1 1 1 0 1 0 1 0 1 1 1 1 0 1 1 1 0 1
2244 1 1 1 1 1 1 1 0 1 1 1 1 1 0 1 1 1 1 0 1 1 1
2345 0 1 0 1 1 1 1 1 0 0 1 0 1 1 1 1 1 1 1 1 1 1
2651 1 1 0 1 1 1 1 1 0 1 0 1 1 1 1 0 0 1 1 1 1 1
3032 1 1 1 1 1 1 1 1 1 0 1 1 0 0 1 1 1 1 1 0 1 1
2393 1 0 1 1 1 1 1 1 1 1 1 0 0 0 1 1 0 1 1 0 1 1
2811 1 1 1 1 1 1 1 1 1 0 1 1 1 1 0 1 1 0 1 0 1 1
2315 1 0 0 1 1 1 0 1 1 0 1 1 0 0 1 1 1 1 1 1 1 1
2564 1 0 1 1 1 1 0 1 1 0 1 0 1 1 1 1 1 1 0 1 0 1
2250 1 1 0 1 1 1 1 0 0 1 1 1 1 0 0 1 1 1 1 1 0 0
2453 1 1 1 0 1 1 0 1 1 1 1 1 1 1 1 1 1 0 0 0 1 1
2520 1 1 1 1 1 1 1 1 1 1 0 1 1 1 1 0 1 1 1 1 1 0
2157 1 1 1 1 1 1 0 1 1 0 0 1 0 1 0 1 0 0 1 0 1 0
2633 1 0 1 0 1 1 1 1 1 1 0 1 1 0 0 1 1 1 1 1 0 1
2260 1 1 1 1 1 0 1 1 0 1 0 1 1 0 1 0 0 1 1 1 0 1
2318 1 0 1 1 1 1 1 1 1 1 1 1 0 1 0 1 0 0 1 1 1 1
2405 1 1 0 0 1 1 1 1 1 1 1 0 1 0 1 1 1 0 1 1 1 1
2626 1 0 1 1 1 0 0 1 0 1 1 1 1 0 1 1 1 1 1 1 0 1
2827 1 0 1 1 1 1 0 1 1 1 1 1 1 1 0 1 0 0 1 1 0 1
2358 1 0 1 1 0 1 0 1 1 1 1 1 0 1 1 1 1 0 1 0 1 1
249 0 0 0 0 0 0 0 0 0 0 0 0 0 0 0 0 0 0 0 0 0 1
2920 1 1 0 1 1 1 1 1 1 1 1 1 1 0 0 1 1 0 0 0 1 1
2476 1 1 1 1 1 1 0 0 0 1 1 0 1 1 0 1 1 1 1 1 1 1
2069 1 0 1 1 1 1 1 0 0 1 1 1 0 1 1 1 0 1 1 1 1 1
2486 1 0 1 1 1 1 1 1 1 1 1 1 0 1 1 1 1 1 1 0 1 0
2673 1 1 0 1 1 1 0 1 0 1 1 1 1 1 1 1 0 1 0 1 1 1
2570 0 1 1 1 1 0 1 0 1 1 0 1 1 1 0 1 1 1 1 1 0 1
2956 1 0 1 1 1 1 1 1 1 1 0 1 1 1 1 1 0 1 1 1 1 1
2082 1 1 1 0 1 1 1 1 0 0 1 1 1 1 0 0 1 0 1 1 1 1
2915 0 1 0 1 0 1 0 1 1 1 1 1 1 1 0 1 1 0 1 1 1 1
2555 1 1 1 1 1 1 1 1 0 0 0 1 0 0 1 1 1 1 1 1 1 1
2582 1 1 1 1 1 0 0 0 0 1 1 1 1 1 0 1 1 1 1 1 1 1
2306 1 1 0 1 1 1 1 1 1 1 0 0 1 1 0 1 0 1 1 1 1 1
